c Random Network
p max    10      20
n         1  s
n        10  t
a       2       1       2
a       5      10      27
a       4       2      18
a       4       3      28
a       6       4       4
a       6      10      44
a       2       4      45
a      10       9      31
a       6       1      43
a       9       2      22
a       1       2      47
a       3       4      16
a       5       6       1
a       1       5      19
a       3       2      21
a       1       6       3
a       3       1      35
a       8       9      39
a       6       8      18
a       3      10      10
